s td 70 8 77
b 1 1 2 12
b 2 10 11 22
b 3 56 67 68
b 4 66 76 77
b 5 2 3 12 13
b 6 9 10 21 22
b 7 3 4 15 27 39 51 63 73
b 8 4 5 15 27 39 51 63 73
b 9 5 15 17 27 39 51 63 73
b 10 5 17 27 29 39 51 63 73
b 11 5 17 29 39 41 51 63 73
b 12 5 17 29 41 51 53 63 73
b 13 5 7 17 29 41 53 63 73
b 14 5 6 7 17
b 15 7 17 19 29 41 53 63 73
b 16 7 19 29 31 41 53 63 73
b 17 7 19 31 41 43 53 63 73
b 18 7 19 31 43 53 55 63 73
b 19 7 19 31 33 43 55
b 20 7 9 19 31 33 43
b 21 7 8 9 19
b 22 9 19 21 31 33 43
b 23 9 19 20 21 31
b 24 9 21 22 33
b 25 21 31 32 33 43
b 26 33 43 44 55
b 27 43 53 55 63 73 75
b 28 43 53 55 63 65 75
b 29 43 53 54 55 65
b 30 53 63 64 65 75
b 31 55 65 75 76
b 32 63 73 74 75
b 33 31 41 42 43 53
b 34 19 29 30 31 41
b 35 7 17 18 19 29
b 36 41 51 52 53 63
b 37 29 39 40 41 51
b 38 17 27 28 29 39
b 39 5 15 16 17 27
b 40 3 15 27 39 51 61 63 73
b 41 3 15 27 39 51 61 71 73
b 42 3 15 27 39 49 51 61 71
b 43 3 15 27 39 49 59 61 71
b 44 3 15 27 37 39 49 59 71
b 45 3 15 27 37 47 49 59 71
b 46 3 15 25 27 37 47 59 71
b 47 3 15 25 35 37 47 59 71
b 48 3 15 25 35 45 47 59 71
b 49 3 15 23 25 35 45
b 50 3 13 15 23 25 35
b 51 3 12 13 23
b 52 3 13 14 15 25
b 53 13 23 24 25 35
b 54 23 34 35 45
b 55 35 45 47 57 59 71
b 56 35 45 46 47 57
b 57 45 47 57 59 69 71
b 58 47 57 58 59 69
b 59 45 57 68 69
b 60 59 69 70 71
b 61 25 35 36 37 47
b 62 15 25 26 27 37
b 63 37 47 48 49 59
b 64 27 37 38 39 49
b 65 49 59 60 61 71
b 66 39 49 50 51 61
b 67 61 71 72 73
b 68 51 61 62 63 73
b 69 45 56 57 68
b 70 55 65 66 76
1 5
2 6
3 69
4 70
5 51
6 24
7 8
7 40
8 9
9 10
9 39
10 11
10 38
11 12
11 37
12 13
12 36
13 14
13 15
15 16
15 35
16 17
16 34
17 18
17 33
18 19
18 27
19 20
19 26
20 21
20 22
22 23
22 24
22 25
27 28
27 32
28 29
28 30
28 31
31 70
40 41
40 68
41 42
41 67
42 43
42 66
43 44
43 65
44 45
44 64
45 46
45 63
46 47
46 62
47 48
47 61
48 49
48 55
49 50
49 54
50 51
50 52
50 53
55 56
55 57
57 58
57 59
57 60
59 69
